Minimize
obj: 0x1 + 2x4 + 0x2 + 3x5 + 6x8 + 0x3 + 4x6 + 8x7 + 21x9

Subject To
c0: x11 + x12 = 1
c1: x42 + x43 = 1
c2: x21 + x22 + x23 = 1
c3: x52 + x53 + x54 = 1
c4: x83 + x84 = 1
c5: x31 + x32 + x33 + x34 = 1
c6: x62 + x63 + x64 + x65 = 1
c7: x73 + x74 + x75 = 1
c8: x94 + x95 = 1

c9: 2x42 + 3x43 - 1x11 - 2x12 >= 1
c10: 2x52 + 3x53 + 4x54 - 1x21 - 2x22 - 3x23 >= 1
c11: 3x83 + 4x84 - 1x21 - 2x22 - 3x23 >= 1
c12: 3x83 + 4x84 - 2x42 - 3x43 >= 1
c13: 2x62 + 3x63 + 4x64 + 5x65 - 1x31 - 2x32 - 3x33 - 4x34 >= 1
c14: 3x73 + 4x74 + 5x75 - 2x42 - 3x43 >= 1
c15: 4x94 + 5x95 - 3x83 - 4x84 >= 1
c16: 4x94 + 5x95 - 2x52 - 3x53 - 4x54 >= 1

i0: x11 >= 0
i1: x12 >= 0
i2: x42 >= 0
i3: x43 >= 0
i4: x21 >= 0
i5: x22 >= 0
i6: x23 >= 0
i7: x52 >= 0
i8: x53 >= 0
i9: x54 >= 0
i10: x83 >= 0
i11: x84 >= 0
i12: x31 >= 0
i13: x32 >= 0
i14: x33 >= 0
i15: x34 >= 0
i16: x62 >= 0
i17: x63 >= 0
i18: x64 >= 0
i19: x65 >= 0
i20: x73 >= 0
i21: x74 >= 0
i22: x75 >= 0
i23: x94 >= 0
i24: x95 >= 0

r0: x11 + x12 - x1 <= 0
r1: x42 + x43 - x4 <= 0
r2: x21 + x22 + x23 - x2 <= 0
r3: x52 + x53 + x54 - x5 <= 0
r4: x83 + x84 - x8 <= 0
r5: x31 + x32 + x33 + x34 - x3 <= 0
r6: x62 + x63 + x64 + x65 - x6 <= 0
r7: x73 + x74 + x75 - x7 <= 0
r8: x94 + x95 - x9 <= 0

Integer
x11 x12 x42 x43 x21 x22 x23 x52 x53 x54 x83 x84 x31 x32 x33 x34 x62 x63 x64 x65 x73 x74 x75 x94 x95 

End